;; unsat

(declare-const x1 sl.list.loc)
(declare-const x2 sl.list.loc)
(declare-const x3 sl.list.loc)
(declare-const x4 sl.list.loc)
(declare-const x5 sl.list.loc)
(declare-const x6 sl.list.loc)
(declare-const x7 sl.list.loc)
(declare-const x8 sl.list.loc)
(declare-const x9 sl.list.loc)
(declare-const x10 sl.list.loc)
(declare-const x11 sl.list.loc)
(declare-const x12 sl.list.loc)
(declare-const x13 sl.list.loc)
(declare-const x14 sl.list.loc)
(declare-const x15 sl.list.loc)
(declare-const x16 sl.list.loc)
(declare-const x17 sl.list.loc)
(declare-const x18 sl.list.loc)
(declare-const x19 sl.list.loc)
(declare-const x20 sl.list.loc)

(assert (sl.sepcon (sl.sepcon (sl.sepcon (sl.sepcon (sl.sepcon (sl.sepcon (sl.sepcon (sl.sepcon (sl.sepcon (sl.sepcon (sl.sepcon (sl.sepcon (sl.sepcon (sl.sepcon (sl.sepcon (sl.sepcon (sl.sepcon (sl.sepcon (sl.sepcon (sl.list.eq sl.list.null sl.list.null)
 (sl.list.neq x6 x19)
)
 (sl.list.neq x3 x7)
)
 (sl.list.neq x3 x20)
)
 (sl.list.neq x7 x20)
)
 (sl.list.neq x9 x19)
)
 (sl.list.neq x2 x20)
)
 (sl.list.neq x8 x19)
)
 (sl.list.neq x8 x17)
)
 (sl.list.neq x4 x11)
)
 (sl.list.neq x4 x13)
)
 (sl.list.neq x4 x19)
)
 (sl.list.neq x1 x16)
)
 (sl.list.neq x1 x20)
)
 (sl.list.neq x13 x18)
)
 (sl.list.neq x13 x17)
)
 (sl.list.neq x10 x19)
)
 (sl.list.neq x10 x20)
)
 (sl.list.neq x16 x19)
)
 (sl.sepcon (sl.sepcon (sl.sepcon (sl.sepcon (sl.sepcon (sl.sepcon (sl.sepcon (sl.sepcon (sl.sepcon (sl.sepcon (sl.sepcon (sl.sepcon (sl.sepcon (sl.list.seg x5 x17)
 (sl.list.seg x19 x1)
)
 (sl.list.seg x4 x12)
)
 (sl.list.seg x12 x20)
)
 (sl.list.seg x12 x15)
)
 (sl.list.seg x12 x11)
)
 (sl.list.seg x2 x18)
)
 (sl.list.seg x17 x14)
)
 (sl.list.seg x7 x16)
)
 (sl.list.seg x3 x20)
)
 (sl.list.seg x3 x12)
)
 (sl.list.seg x11 x12)
)
 (sl.list.seg x6 x17)
)
 (sl.list.seg x6 x19)
)
)
)

